13270 40012
10415 2101
40150 15310
62574 5079
51800 63546
2326 51270
61183 29704
31807 16801
53612 47017
24601 16555
10112 1599
39975 34748
37557 52431
43297 56309
48595 3488
57846 55710
51360 49201
65222 25899
30266 34931
51094 1848
20214 31022
31343 15390
53223 53632
63550 30636
